s 1
v 1 -2 1768515943 926365492 84215041 -757935410 -7 1852730984 -9 10 -673720369 -1515870820 -13 1094795574 252645123 -589505328 -17 -18 1179010615 20 -505290287 -22 2105376107 -24 421075205 -421075246 -1263225697 -2105376148 29 -30 -336860205 -1179010656 -2021161107 1431655738 589505287 36 -1094795615 -1936946066 1515870779 673720328 -168430123 -1010580574 -1852731025 1600085820 -45 46 -926365533 48 1684300861 842150410 51 -842150492 -53 54 -55 84215000 -57 -1600085902 1852730943 1010580492 168430041 -673720410 63 -64 1094795533 66 -589505369 -68 -69 70 336860123 -72 -1347440779 2105376066 1263225615 76 77 78 -79 1347440656 505290205 82 -83 -2021161148 1431655697 589505246 -87 -1094795656 -1936946107 1515870738 -91 -168430164 -93 -1852731066 1600085779 757935328 97 -926365574 -99 100 
t 10ms